p tw 49 52
1 2
2 13
3 4
4 5
5 9
6 7
7 8
8 9
9 10
10 11
11 12
12 14
13 24
14 19
15 16
16 17
17 18
18 19
19 20
20 21
21 22
22 23
23 25
23 28
24 35
25 26
26 27
27 31
28 29
29 30
30 31
31 32
32 33
33 34
34 36
35 45
36 37
36 40
37 38
38 39
39 43
40 41
41 42
42 43
43 44
45 46
46 47
46 15
47 48
48 49
49 3
49 6
